Na1 Zr4 P6 O24
1.0
-4.407500 -7.634014 -0.000000
4.407500 -7.634014 0.000000
-0.000000 -5.089343 7.582000
Na Zr P O
1 4 6 24
direct
0.500000 0.500000 0.500000 Na
0.645680 0.645680 0.062960 Zr
0.145680 0.145680 0.562960 Zr
0.354320 0.354320 0.937040 Zr
0.854320 0.854320 0.437040 Zr
0.458400 0.041600 0.750000 P
0.041600 0.750000 0.750000 P
0.750000 0.458400 0.750000 P
0.958400 0.250000 0.250000 P
0.250000 0.541600 0.250000 P
0.541600 0.958400 0.250000 P
0.495000 0.879700 0.913200 O
0.879700 0.712100 0.913200 O
0.712100 0.495000 0.913200 O
0.995000 0.212100 0.413200 O
0.212100 0.379700 0.413200 O
0.379700 0.995000 0.413200 O
0.505000 0.120300 0.086800 O
0.120300 0.287900 0.086800 O
0.287900 0.505000 0.086800 O
0.005000 0.787900 0.586800 O
0.787900 0.620300 0.586800 O
0.620300 0.005000 0.586800 O
0.564000 0.778700 0.237200 O
0.778700 0.420100 0.237200 O
0.420100 0.564000 0.237200 O
0.064000 0.920100 0.737200 O
0.920100 0.278700 0.737200 O
0.278700 0.064000 0.737200 O
0.436000 0.221300 0.762800 O
0.221300 0.579900 0.762800 O
0.579900 0.436000 0.762800 O
0.936000 0.079900 0.262800 O
0.079900 0.721300 0.262800 O
0.721300 0.936000 0.262800 O
