Na Zr P O
1.0
  -4.4074999999999998  -7.6340139999999996  -0.0000000000000000
   4.4074999999999998  -7.6340139999999996   0.0000000000000000
  -0.0000000000000000  -5.0893430000000004   7.5819999999999999
Na Zr P O
2  4  6  24  
Direct
  0.0000000000000000  0.0000000000000000  0.0000000000000000  
  0.5000000000000000  0.5000000000000000  0.5000000000000000
  0.6456800000000000  0.6456800000000000  0.0629600000000000  
  0.1456800000000000  0.1456800000000000  0.5629600000000000  
  0.3543200000000000  0.3543200000000000  0.9370400000000000  
  0.8543200000000000  0.8543200000000000  0.4370400000000000  
  0.4584000000000000  0.0416000000000000  0.7500000000000000  
  0.0416000000000000  0.7500000000000000  0.7500000000000000  
  0.7500000000000000  0.4584000000000000  0.7500000000000000  
  0.9584000000000000  0.2500000000000000  0.2500000000000000  
  0.2500000000000000  0.5416000000000000  0.2500000000000000  
  0.5416000000000000  0.9584000000000000  0.2500000000000000  
  0.4950000000000000  0.8797000000000000  0.9132000000000000  
  0.8797000000000000  0.7121000000000000  0.9132000000000000  
  0.7121000000000000  0.4950000000000000  0.9132000000000000  
  0.9950000000000000  0.2121000000000000  0.4132000000000000  
  0.2121000000000000  0.3797000000000000  0.4132000000000000  
  0.3797000000000000  0.9950000000000000  0.4132000000000000  
  0.5050000000000000  0.1203000000000000  0.0868000000000000  
  0.1203000000000000  0.2879000000000000  0.0868000000000000  
  0.2879000000000000  0.5050000000000000  0.0868000000000000  
  0.0050000000000000  0.7879000000000000  0.5868000000000000  
  0.7879000000000000  0.6203000000000000  0.5868000000000000  
  0.6203000000000000  0.0050000000000000  0.5868000000000000  
  0.5639999999999999  0.7786999999999999  0.2372000000000000  
  0.7786999999999999  0.4201000000000000  0.2372000000000000  
  0.4201000000000000  0.5639999999999999  0.2372000000000000  
  0.0640000000000000  0.9201000000000000  0.7372000000000000  
  0.9201000000000000  0.2787000000000000  0.7372000000000000  
  0.2787000000000000  0.0640000000000000  0.7372000000000000  
  0.4360000000000000  0.2213000000000000  0.7628000000000000  
  0.2213000000000000  0.5799000000000000  0.7628000000000000  
  0.5799000000000000  0.4360000000000000  0.7628000000000000  
  0.9360000000000001  0.0799000000000000  0.2628000000000000  
  0.0799000000000000  0.7213000000000001  0.2628000000000000  
  0.7213000000000001  0.9360000000000001  0.2628000000000000  
