Li   Fe   P    O 
   1.00000000000000     
  10.4117232998770000   0.0000000000000000   0.0000000000000000
   0.0000000000000000  12.0783517723595999   0.0000000000000000
   0.0000000000000000   0.0000000000000000   9.4775996158232907
Li   Fe   P    O 
15  16  16  64  
Direct
  0.4982270080339309  0.7385547725338991  0.2549992904495534  
  0.5000004114415239  0.9999999545242521  0.2499994694720606  
  0.5000001412073605  0.9999999763162190  0.7499996408055427  
  0.4999997949837852  0.5000002680045125  0.7499999178576536  
  0.9997347258973480  0.2510205724825018  0.0008217161635461  
  0.0002851383084493  0.2503142526464119  0.4999945475017264  
  0.9997146742125550  0.7496858538353569  0.0000047405636096  
  0.0002655958875871  0.7489797455559097  0.4991773294985566  
  0.5017742731162090  0.2614443055949455  0.2450005420559458  
  0.4977175770199478  0.2509458005833023  0.7474884140071075  
  0.5022824741084482  0.7490541703176498  0.7525109258120398  
  0.0000350034868893  0.0000773673128489  0.0006064674933736  
  0.9999647917759130  0.9999235567460349  0.4993919375349220  
  0.9994672354227000  0.5000139712762572  0.0003799945526342  
  0.0005322003275032  0.4999856369854597  0.4996191471290405  
  0.7820090882867841  0.1248979084813003  0.2624361782286150  
  0.7819080497802088  0.1253000477828956  0.7626771640331300  
  0.7780562860583385  0.6233456953965665  0.2607848537775449  
  0.7815519801372716  0.6252572819515242  0.7632650159020039  
  0.2830390343193166  0.1257198657575015  0.4868036139799995  
  0.2822294021194420  0.1255890775058626  0.9870847594305842  
  0.2839469888953069  0.6226086138608254  0.4861372413636988  
  0.2841674879935901  0.6236628242749170  0.9897124686769652  
  0.2219440081618374  0.3766548586548203  0.2392163776790742  
  0.2184489267013344  0.3747427148531120  0.7367359005196171  
  0.2179910500651781  0.8751021125144720  0.2375634231814717  
  0.2180925712278320  0.8746998633581416  0.7373221453833670  
  0.7160527489922991  0.3773909845238547  0.0138633721809814  
  0.7158324166206002  0.3763375786340497  0.5102876877681569  
  0.7169602317171461  0.8742804892604452  0.0131955268754032  
  0.7177705221829576  0.8744101438715813  0.5129157611112823  
  0.5952975828389437  0.1251126584132392  0.0395976958026947  
  0.5965692334207072  0.1245991425758487  0.5393242975777723  
  0.5950717978562633  0.6251078325782045  0.0383343520723748  
  0.5973946957957174  0.6278675007943768  0.5401029171438581  
  0.0949728639779070  0.1254694140703237  0.2099398737244589  
  0.0947444738612619  0.1247166410740013  0.7098814357745449  
  0.0942715546986854  0.6254455106271916  0.2101773581275544  
  0.0951729984505462  0.6252491032014565  0.7108500357037707  
  0.4049287394377181  0.3748921720980908  0.4616650412012078  
  0.4026029725586830  0.3721321390378448  0.9599033062300494  
  0.4047026854422501  0.8748867850853561  0.4604029070141758  
  0.4034321787351385  0.8754002578573956  0.9606746482441316  
  0.9057278214791706  0.3745534657990743  0.2898211021935997  
  0.9048261508168952  0.3747499657310680  0.7891488342157402  
  0.9050263485258244  0.8745314102383980  0.2900593948473816  
  0.9052536605139900  0.8752832001145615  0.7901175308975599  
  0.5976367444642046  0.1235539782681314  0.3774506703076911  
  0.5964507770198371  0.1245945055193459  0.8773785966345755  
  0.6026225153110203  0.6340406210002520  0.3799192574862559  
  0.5965213494440190  0.6252291855191593  0.8750512690706510  
  0.0951094196402719  0.1247962072177223  0.3720265728097260  
  0.0950482486594818  0.1248490560645816  0.8719733591381521  
  0.0950835972002787  0.6251042782208150  0.3723315903529545  
  0.0953445330695705  0.6257586666984969  0.8729275794679956  
  0.3973784120646278  0.3659593223592915  0.1200852869742615  
  0.4034788149178449  0.3747708717219055  0.6249483332531192  
  0.4023628912836730  0.8764461836662943  0.1225480873175907  
  0.4035488881029060  0.8754054252899324  0.6226220122254600  
  0.9049159188804408  0.3748949503826755  0.1276679591013828  
  0.9046549495176628  0.3742412904814743  0.6270715161240389  
  0.9048905624744776  0.8752051254295797  0.1279730404019204  
  0.9049518281387394  0.8751504566596572  0.6280255249525556  
  0.9573961458972824  0.1246200435773442  0.1454477236352265  
  0.9571732927330407  0.1239061387968690  0.6456900905907417  
  0.9568485992884312  0.6255110965119384  0.1459133083396644  
  0.9577440299916536  0.6256565559949482  0.6461511096001447  
  0.4577478842947672  0.1242016971000148  0.1029369167578942  
  0.4589297884897677  0.1247214766865714  0.6034341823395551  
  0.4574208961542087  0.6288796541582345  0.0972411566757082  
  0.4590152705454107  0.6256104389312950  0.6024459576117249  
  0.0431512534700326  0.3744886073925515  0.3540859867295129  
  0.0422560154147538  0.3743428312010192  0.8538477995487224  
  0.0426048505507208  0.8753807009546415  0.3545519586892329  
  0.0428270822328078  0.8760939638660279  0.8543095273900337  
  0.5425798764571313  0.3711194592778718  0.4027588474300496  
  0.5409852314466095  0.3743890558859180  0.8975581198875219  
  0.5422514436976744  0.8757986806385788  0.3970640268349073  
  0.5410693116139412  0.8752788656401740  0.8965658741187394  
  0.6676297445447752  0.0230615928908288  0.1058454537255356  
  0.6674728691668014  0.0220241291016959  0.6065151604654420  
  0.6744223472973347  0.5260501085638086  0.0994383755419068  
  0.6690166827044747  0.5248670691938464  0.6048900141381962  
  0.1656617551224132  0.2281394777505499  0.1441373931017132  
  0.1653026572048406  0.2272354359020024  0.6433343474149775  
  0.1657272921096972  0.7281508621051367  0.1447164653772600  
  0.1673732881043476  0.7271132635719181  0.6442313584730202  
  0.3332051554302890  0.2714238316708638  0.3958796597202844  
  0.3332695077272930  0.2701984650952458  0.8874867155294889  
  0.3334688784282218  0.7722021127327793  0.3945716765002899  
  0.3311908327759154  0.7734427826971686  0.8944179859764675  
  0.8339270279474366  0.4765479758565934  0.3563067706916097  
  0.8339816994921837  0.4774899309376160  0.8545362201144265  
  0.8330964883584366  0.9768075373002740  0.3561308506342158  
  0.8330204448853464  0.9773779878462582  0.8561275853415311  
  0.3255785150453322  0.4739518705596474  0.4005607378096196  
  0.3309827184541039  0.4751327877154962  0.8951132116385662  
  0.3323703508791504  0.9769388557820576  0.3941544235492959  
  0.3325277905958660  0.9779765899508258  0.8934836489616288  
  0.8342726517812613  0.2718491406463190  0.3552833623733069  
  0.8326259883818691  0.2728861481050926  0.8557676093119545  
  0.8343379416751816  0.7718616973659612  0.3558620789726381  
  0.8346973912355691  0.7727653111492699  0.8566656264080539  
  0.6665312282247151  0.2277977481577234  0.1054284858619680  
  0.6688096631551642  0.2265565013553508  0.6055809687140546  
  0.6667962923832340  0.7285766432508691  0.1041201687791048  
  0.6667313659678495  0.7298024042433426  0.6125170688004211  
  0.1669041235387408  0.0231927906138830  0.1438686027541667  
  0.1669787642033987  0.0226215142869344  0.6438713445655264  
  0.1660725850261843  0.5234515910482787  0.1436936007146641  
  0.1660179387859894  0.5225089867451875  0.6454634844808724  
