Li   Fe   P    O 
   1.00000000000000     
  10.4117232998770000   0.0000000000000000   0.0000000000000000
   0.0000000000000000  12.0783517723595999   0.0000000000000000
   0.0000000000000000   0.0000000000000000   9.4775996158232907
Li   Fe   P    O 
15  16  16  64  
Direct
  0.4979694281449145  0.5118396144733772  0.2550723517587853  
  0.5020306194574498  0.9881606601500020  0.2449284537354345  
  0.4976799866985038  0.9990156868586830  0.7475149710005971  
  0.5023197934324001  0.5009844597664710  0.7524855187201247  
  0.0000492227655477  0.2498747005330889  0.0004565279628304  
  0.9999507842611290  0.2501251718243518  0.4995427322751143  
  0.9994560405410510  0.7499658095956376  0.0003243114436984  
  0.0005434204727875  0.7500342496313146  0.4996754187452914  
  0.5000001710970056  0.2499999990821161  0.2499994421525682  
  0.5000002933841843  0.2500000256766695  0.7499996855217714  
  0.4999998474012485  0.7500002869587306  0.7500008324684363  
  0.9997137356453339  0.9988801110136710  0.0009015599638642  
  0.0003036957897188  0.9996454047201260  0.4999509109675665  
  0.9996961710272970  0.5003548391367182  0.0000487904460877  
  0.0002863413809368  0.5011199105274416  0.4990979326050775  
  0.7819307457941296  0.1251011221636973  0.2624211117071537  
  0.7818750536171939  0.1247093220693087  0.7626332084867565  
  0.7779806100697468  0.6266381430533415  0.2608420326646026  
  0.7815535410323651  0.6246862978808155  0.7633450281718972  
  0.2830362839531462  0.1243469935331280  0.4866949024762456  
  0.2822129011857450  0.1245227326975762  0.9870973606302458  
  0.2840117709041630  0.6274279547665771  0.4862555027321414  
  0.2842493057674095  0.6263625784536995  0.9897684309704065  
  0.2180693550117823  0.3748990994509739  0.2375783920177300  
  0.2181250535373749  0.3752906986763553  0.7373659964057594  
  0.2220189372438676  0.8733618670176694  0.2391583946170036  
  0.2184468586503457  0.8753135630254634  0.7366555504674914  
  0.7169637190787980  0.3756529512353594  0.0133049382376781  
  0.7177871341549810  0.3754778270939843  0.5129027849572556  
  0.7159885683425778  0.8725715996885698  0.0137448818598148  
  0.7157505503716532  0.8736371404748351  0.5102320370781070  
  0.5952702786538058  0.1247879400070341  0.0395963452958647  
  0.5965673193142479  0.1253112447097785  0.5393085012348796  
  0.5951098645607886  0.6248863098124430  0.0383276186961358  
  0.5974324321151615  0.6221448945352136  0.5401807547924644  
  0.0949599000742552  0.1245256068089664  0.2099289971050820  
  0.0947501534037972  0.1252899308335288  0.7098270277756686  
  0.0943021957872335  0.6245781741797667  0.2102402418406445  
  0.0951879574092154  0.6247622397945449  0.7109129805081188  
  0.4047303025040133  0.3752115778891861  0.4604028774006335  
  0.4034328360088311  0.3746887396501689  0.9606914811807102  
  0.4048902184104894  0.8751132062439758  0.4616730745408396  
  0.4025668331815405  0.8778549057516192  0.9598203376061388  
  0.9050399910463108  0.3754745376148546  0.2900706025038126  
  0.9052501810951380  0.3747101678052146  0.7901729442537915  
  0.9056971986278386  0.8754221906623686  0.2897597861566215  
  0.9048119962921500  0.8752378848139342  0.7890867103884044  
  0.5976753141280926  0.1264095234761123  0.3774500633852387  
  0.5963780445002220  0.1252274843858355  0.8773810429947424  
  0.6026605946787467  0.6159587622080426  0.3799876214227804  
  0.5966207437530761  0.6246617303486274  0.8750445117046248  
  0.0951043200405052  0.1252150948036025  0.3720185342428431  
  0.0949798662067232  0.1251822829320900  0.8719130846410601  
  0.0950628354054427  0.6248800866399146  0.3723999691535132  
  0.0953592835710359  0.6242664645724079  0.8729939853460567  
  0.4023245469574543  0.3735904404283527  0.1225498316205701  
  0.4036225404977370  0.3747715747930768  0.6226187099888081  
  0.3973391094991240  0.8840412470575356  0.1200144633529105  
  0.4033796234419592  0.8753384428092917  0.6249561863508897  
  0.9048955981452308  0.3747850761176694  0.1279809093257323  
  0.9050200863142456  0.3748180928118843  0.6280869213237161  
  0.9049369642205428  0.8751199598396036  0.1275998270779702  
  0.9046406411251328  0.8757333002429922  0.6270058234408143  
  0.9573662155083432  0.1253104190933060  0.1455110789222336  
  0.9571821907552436  0.1260470916991196  0.6456126486085824  
  0.9569004651126470  0.6244927522141823  0.1459405575451130  
  0.9577575233191996  0.6243073157479412  0.6462098637243531  
  0.4577211220227068  0.1258601283368655  0.1028794369648247  
  0.4588948167198083  0.1252787944503468  0.6033259455272860  
  0.4574370754094217  0.6212197193320275  0.0972724618142954  
  0.4590909391857707  0.6244476254959580  0.6026677408655033  
  0.0426336146195930  0.3746898569618588  0.3544882459351290  
  0.0428182306041336  0.3739528615204406  0.8543869104907682  
  0.0430988106240860  0.8755073247448378  0.3540592620509359  
  0.0422421322263576  0.8756928176881004  0.8537898929468553  
  0.5422792036362715  0.3741395564224527  0.3971200457579683  
  0.5411053923816757  0.3747211001890040  0.8966741368072039  
  0.5425629936079364  0.8787799434545877  0.4027280798998498  
  0.5409081589472264  0.8755523646512149  0.8973330167508511  
  0.6663927117665555  0.0220660974993270  0.1054218432862702  
  0.6686539969943146  0.0232905699317770  0.6055754084825772  
  0.6667843507698487  0.5214945534693882  0.1042870921392192  
  0.6666952443984951  0.5201763555407627  0.6124825626768661  
  0.1669190474106819  0.2268009037115321  0.1438608548427517  
  0.1670215366923276  0.2273751554702265  0.6438387233376324  
  0.1660899882624517  0.7265751171638174  0.1437213797073483  
  0.1659434944939726  0.7275311965092672  0.6454435203049204  
  0.3322459617571706  0.2732043078407068  0.3942468140511662  
  0.3324278844221387  0.2721885308516639  0.8934294194420709  
  0.3255263338464309  0.7760875020905417  0.4005787325255747  
  0.3308217155756987  0.7749471015144608  0.8949653914934073  
  0.8344021896265408  0.4781633024800274  0.3558884799896311  
  0.8347078384772668  0.4772566501022895  0.8566754880025655  
  0.8341840983940872  0.9781253243517304  0.3551996519964029  
  0.8325719149088959  0.9771173335827588  0.8556791815978982  
  0.3336078231766194  0.4779336832485019  0.3945777675861592  
  0.3313460396577650  0.4767093973850280  0.8944242952131783  
  0.3332156322408847  0.9785047821811802  0.3957133236805153  
  0.3333045769589953  0.9798235733753056  0.8875181220460487  
  0.8330812680848411  0.2731995157038865  0.3561386414925430  
  0.8329787888821205  0.2726248370856290  0.8561607432514736  
  0.8339092664206750  0.7734252132146667  0.3562785860011456  
  0.8340569108883306  0.7724690977065869  0.8545566409823826  
  0.6677546883494504  0.2267953668505570  0.1057524793711938  
  0.6675722667567677  0.2278114389490449  0.6065701138147098  
  0.6744741801657296  0.7239124427899521  0.0994217717046353  
  0.6691775919438201  0.7250532826298197  0.6050357642198073  
  0.1655974481348777  0.0218367080649994  0.1441113581198472  
  0.1652926996192147  0.0227432909316560  0.6433247434558557  
  0.1658156640664817  0.5218751635000830  0.1447998648154557  
  0.1674282509912539  0.5228825964611904  0.6443201558573736  
